zaligvinder/models/all_counting_bench/automatarklen/automatark/instance943.smt2
(set-logic QF_SLIA)
(set-option :produce-models true)
(declare-const X String)
; ^(([0]?[1-9])|(1[0-2]))\/(([0]?[1-9])|([1,2]\d{1})|([3][0,1]))\/[12]\d{3}$
(assert (str.in_re X (re.++ (re.union (re.++ (re.opt (str.to_re "0")) (re.range "1" "9")) (re.++ (str.to_re "1") (re.range "0" "2"))) (str.to_re "/") (re.union (re.++ (re.opt (str.to_re "0")) (re.range "1" "9")) (re.++ (re.union (str.to_re "1") (str.to_re ",") (str.to_re "2")) ((_ re.loop 1 1) (re.range "0" "9"))) (re.++ (str.to_re "3") (re.union (str.to_re "0") (str.to_re ",") (str.to_re "1")))) (str.to_re "/") (re.union (str.to_re "1") (str.to_re "2")) ((_ re.loop 3 3) (re.range "0" "9")) (str.to_re "\u{0a}"))))
; /\/AES\d+O\d+\.jsp\?[a-z0-9=\u{2b}\u{2f}]{20}/iU
(assert (not (str.in_re X (re.++ (str.to_re "//AES") (re.+ (re.range "0" "9")) (str.to_re "O") (re.+ (re.range "0" "9")) (str.to_re ".jsp?") ((_ re.loop 20 20) (re.union (re.range "a" "z") (re.range "0" "9") (str.to_re "=") (str.to_re "+") (str.to_re "/"))) (str.to_re "/iU\u{0a}")))))
; ^[0-9]$|[1-9]+[0-9]$
(assert (not (str.in_re X (re.union (re.range "0" "9") (re.++ (re.+ (re.range "1" "9")) (re.range "0" "9") (str.to_re "\u{0a}"))))))
; /gate\u{2e}php\u{3f}reg=[a-z]{10}/U
(assert (str.in_re X (re.++ (str.to_re "/gate.php?reg=") ((_ re.loop 10 10) (re.range "a" "z")) (str.to_re "/U\u{0a}"))))
(assert (> (str.len X) 10))
(check-sat)
